(set-option :smt.auto-config false)
(set-option :smt.mbqi false)
(set-option :sat.random_seed 488)
(set-option :smt.random_seed 599)
(set-option :nlsat.seed 611)
(set-option :memory_max_size 6000)
(declare-const x Int)
(declare-sort RegExStr 0)
(declare-sort RMode 0)
(declare-const y Int)
(assert (! (not (<= x 0)) :named A0))
(assert (! (not (<= y 0)) :named A1))
(assert (! (<= (+ x y) 0) :named A2))
